20 10
0 0 0 3
0 10 30 1.5
0 20 45 2.7
0 30 72 1.6
0 40 88 2
0 50 108 2.2
0 60 130 3.9
0 70 169 4
0 80 209 2.2
0 90 231 2.2
1 0 0 3
1 10 30 1.5
1 20 45 2.7
1 30 72 1.6
1 40 88 2
1 50 108 2.2
1 60 130 3.9
1 70 169 4
1 80 209 2.2
1 90 231 2.2
2 0 0 3
2 10 30 1.5
2 20 45 2.7
2 30 72 1.6
2 40 88 2
2 50 108 2.2
2 60 130 3.9
2 70 169 4
2 80 209 2.2
2 90 231 2.2
3 0 0 3
3 10 30 1.5
3 20 45 2.7
3 30 72 1.6
3 40 88 2
3 50 108 2.2
3 60 130 3.9
3 70 169 4
3 80 209 2.2
3 90 231 2.2
4 0 0 3
4 10 30 1.5
4 20 45 2.7
4 30 72 1.6
4 40 88 2
4 50 108 2.2
4 60 130 3.9
4 70 169 4
4 80 209 2.2
4 90 231 2.2
5 0 0 3
5 10 30 1.5
5 20 45 2.7
5 30 72 1.6
5 40 88 2
5 50 108 2.2
5 60 130 3.9
5 70 169 4
5 80 209 2.2
5 90 231 2.2
6 0 0 3
6 10 30 1.5
6 20 45 2.7
6 30 72 1.6
6 40 88 2
6 50 108 2.2
6 60 130 3.9
6 70 169 4
6 80 209 2.2
6 90 231 2.2
7 0 0 3
7 10 30 1.5
7 20 45 2.7
7 30 72 1.6
7 40 88 2
7 50 108 2.2
7 60 130 3.9
7 70 169 4
7 80 209 2.2
7 90 231 2.2
8 0 0 3
8 10 30 1.5
8 20 45 2.7
8 30 72 1.6
8 40 88 2
8 50 108 2.2
8 60 130 3.9
8 70 169 4
8 80 209 2.2
8 90 231 2.2
9 0 0 3
9 10 30 1.5
9 20 45 2.7
9 30 72 1.6
9 40 88 2
9 50 108 2.2
9 60 130 3.9
9 70 169 4
9 80 209 2.2
9 90 231 2.2
10 0 0 3
10 10 30 1.5
10 20 45 2.7
10 30 72 1.6
10 40 88 2
10 50 108 2.2
10 60 130 3.9
10 70 169 4
10 80 209 2.2
10 90 231 2.2
11 0 0 3
11 10 30 1.5
11 20 45 2.7
11 30 72 1.6
11 40 88 2
11 50 108 2.2
11 60 130 3.9
11 70 169 4
11 80 209 2.2
11 90 231 2.2
12 0 0 3
12 10 30 1.5
12 20 45 2.7
12 30 72 1.6
12 40 88 2
12 50 108 2.2
12 60 130 3.9
12 70 169 4
12 80 209 2.2
12 90 231 2.2
13 0 0 3
13 10 30 1.5
13 20 45 2.7
13 30 72 1.6
13 40 88 2
13 50 108 2.2
13 60 130 3.9
13 70 169 4
13 80 209 2.2
13 90 231 2.2
14 0 0 3
14 10 30 1.5
14 20 45 2.7
14 30 72 1.6
14 40 88 2
14 50 108 2.2
14 60 130 3.9
14 70 169 4
14 80 209 2.2
14 90 231 2.2
15 0 0 3
15 10 30 1.5
15 20 45 2.7
15 30 72 1.6
15 40 88 2
15 50 108 2.2
15 60 130 3.9
15 70 169 4
15 80 209 2.2
15 90 231 2.2
16 0 0 3
16 10 30 1.5
16 20 45 2.7
16 30 72 1.6
16 40 88 2
16 50 108 2.2
16 60 130 3.9
16 70 169 4
16 80 209 2.2
16 90 231 2.2
17 0 0 3
17 10 30 1.5
17 20 45 2.7
17 30 72 1.6
17 40 88 2
17 50 108 2.2
17 60 130 3.9
17 70 169 4
17 80 209 2.2
17 90 231 2.2
18 0 0 3
18 10 30 1.5
18 20 45 2.7
18 30 72 1.6
18 40 88 2
18 50 108 2.2
18 60 130 3.9
18 70 169 4
18 80 209 2.2
18 90 231 2.2
19 0 0 3
19 10 30 1.5
19 20 45 2.7
19 30 72 1.6
19 40 88 2
19 50 108 2.2
19 60 130 3.9
19 70 169 4
19 80 209 2.2
19 90 231 2.2
